NAME: random-77-23585
TYPE: TSP
COMMENT: size=77 seed=23585
DIMENSION: 156
EDGE_WEIGHT_TYPE: EUC_2D
NODE_COORD_SECTION
+0 95 671
-0 95 671
+1 495 12
-1 717 513
+2 368 297
-2 932 775
+3 914 265
-3 175 931
+4 932 358
-4 226 348
+5 893 406
-5 288 77
+6 68 536
-6 219 596
+7 643 536
-7 302 738
+8 237 202
-8 930 878
+9 475 332
-9 384 733
+10 273 189
-10 84 311
+11 923 867
-11 21 580
+12 633 921
-12 766 756
+13 451 739
-13 749 881
+14 862 23
-14 429 339
+15 978 957
-15 293 12
+16 542 455
-16 326 747
+17 989 672
-17 907 712
+18 977 461
-18 407 599
+19 984 453
-19 505 610
+20 247 458
-20 987 746
+21 826 66
-21 564 464
+22 751 798
-22 127 27
+23 559 35
-23 93 166
+24 314 136
-24 133 581
+25 301 100
-25 404 745
+26 770 576
-26 717 232
+27 202 708
-27 61 879
+28 712 199
-28 636 557
+29 174 416
-29 448 848
+30 638 873
-30 200 843
+31 524 853
-31 465 324
+32 408 387
-32 477 959
+33 355 777
-33 642 117
+34 33 607
-34 879 611
+35 851 284
-35 678 727
+36 783 70
-36 832 234
+37 913 423
-37 852 781
+38 691 598
-38 327 328
+39 829 327
-39 758 530
+40 240 318
-40 498 379
+41 387 535
-41 174 937
+42 248 371
-42 392 954
+43 424 955
-43 368 598
+44 454 673
-44 365 509
+45 4 396
-45 654 784
+46 752 53
-46 44 633
+47 802 659
-47 482 276
+48 455 821
-48 203 796
+49 184 254
-49 648 770
+50 637 608
-50 723 337
+51 1 294
-51 10 901
+52 332 937
-52 658 564
+53 59 333
-53 123 369
+54 732 584
-54 214 475
+55 616 273
-55 306 521
+56 273 258
-56 981 993
+57 478 239
-57 733 423
+58 627 186
-58 888 467
+59 394 982
-59 343 579
+60 670 785
-60 353 482
+61 391 434
-61 552 746
+62 775 843
-62 682 290
+63 47 607
-63 866 421
+64 643 638
-64 508 468
+65 922 760
-65 102 531
+66 172 799
-66 769 808
+67 728 835
-67 413 616
+68 482 957
-68 312 639
+69 746 751
-69 689 612
+70 582 918
-70 62 962
+71 708 434
-71 534 695
+72 552 278
-72 473 625
+73 405 500
-73 172 236
+74 627 427
-74 920 592
+75 265 614
-75 420 577
+76 843 864
-76 59 579
+77 625 787
-77 380 829
PRECEDENCE_SECTION
+0 -0
+1 -1
+2 -2
+3 -3
+4 -4
+5 -5
+6 -6
+7 -7
+8 -8
+9 -9
+10 -10
+11 -11
+12 -12
+13 -13
+14 -14
+15 -15
+16 -16
+17 -17
+18 -18
+19 -19
+20 -20
+21 -21
+22 -22
+23 -23
+24 -24
+25 -25
+26 -26
+27 -27
+28 -28
+29 -29
+30 -30
+31 -31
+32 -32
+33 -33
+34 -34
+35 -35
+36 -36
+37 -37
+38 -38
+39 -39
+40 -40
+41 -41
+42 -42
+43 -43
+44 -44
+45 -45
+46 -46
+47 -47
+48 -48
+49 -49
+50 -50
+51 -51
+52 -52
+53 -53
+54 -54
+55 -55
+56 -56
+57 -57
+58 -58
+59 -59
+60 -60
+61 -61
+62 -62
+63 -63
+64 -64
+65 -65
+66 -66
+67 -67
+68 -68
+69 -69
+70 -70
+71 -71
+72 -72
+73 -73
+74 -74
+75 -75
+76 -76
+77 -77
EOF
